Route #1: 19 53 23 55 50 63 
Route #2: 56 60 21 16 13 46 65 31 
Route #3: 4 49 37 8 1 33 
Route #4: 38 40 36 32 6 58 10 24 28 42 
Route #5: 64 35 7 5 14 66 27 
Route #6: 41 22 51 61 9 12 45 
Route #7: 25 11 3 39 29 18 67 
Route #8: 15 48 34 59 44 30 54 62 43 
Route #9: 17 52 20 26 57 2 47 
cost 1527.56